 iprint = 3
 num_bands       =   3
 num_wann        =   3
 num_iter        = 1000
 num_print_cycles =100
 
 !dis_froz_min     = 7.
 !dis_froz_max     = 9.
 dis_mix_ratio   = 0.5
 write_proj = .true.
 
 !SYSTEM
 
 begin unit_cell_cart
 bohr
  7.2613000  0.0000000  0.0000000
  0.0000000  7.2613000  0.0000000
  0.0000000  0.0000000  7.2613000
 end unit_cell_cart
 begin atoms_frac
Sr 0.00000 0.00000 0.00000
V  0.50000 0.50000 0.50000
O  0.00000 0.50000 0.50000
O  0.50000 0.00000 0.50000
O  0.50000 0.50000 0.00000
 end atoms_frac
 
 begin projections
 end projections
 
 begin kpoint_path
GAM  0.00  0.00  0.00   M  0.50  0.00  0.50
  M  0.50  0.00  0.50   R  0.50  0.50  0.50
  R  0.50  0.50  0.50 GAM  0.00  0.00  0.00
GAM  0.00  0.00  0.00   X  0.00  0.00  0.50
  X  0.00  0.00  0.50   M  0.00  0.50  0.50
 end kpoint_path

 bands_plot = .true.
bands_num_points  = 23
 wannier_plot = .false.
 !restart = plot

 ! KPOINTS

 mp_grid :            8           8           8

 begin kpoints
  0.000000000  0.000000000  0.000000000
  0.000000000  0.000000000  0.125000000
  0.000000000  0.000000000  0.250000000
  0.000000000  0.000000000  0.375000000
  0.000000000  0.000000000  0.500000000
  0.000000000  0.000000000  0.625000000
  0.000000000  0.000000000  0.750000000
  0.000000000  0.000000000  0.875000000
  0.000000000  0.125000000  0.000000000
  0.000000000  0.125000000  0.125000000
  0.000000000  0.125000000  0.250000000
  0.000000000  0.125000000  0.375000000
  0.000000000  0.125000000  0.500000000
  0.000000000  0.125000000  0.625000000
  0.000000000  0.125000000  0.750000000
  0.000000000  0.125000000  0.875000000
  0.000000000  0.250000000  0.000000000
  0.000000000  0.250000000  0.125000000
  0.000000000  0.250000000  0.250000000
  0.000000000  0.250000000  0.375000000
  0.000000000  0.250000000  0.500000000
  0.000000000  0.250000000  0.625000000
  0.000000000  0.250000000  0.750000000
  0.000000000  0.250000000  0.875000000
  0.000000000  0.375000000  0.000000000
  0.000000000  0.375000000  0.125000000
  0.000000000  0.375000000  0.250000000
  0.000000000  0.375000000  0.375000000
  0.000000000  0.375000000  0.500000000
  0.000000000  0.375000000  0.625000000
  0.000000000  0.375000000  0.750000000
  0.000000000  0.375000000  0.875000000
  0.000000000  0.500000000  0.000000000
  0.000000000  0.500000000  0.125000000
  0.000000000  0.500000000  0.250000000
  0.000000000  0.500000000  0.375000000
  0.000000000  0.500000000  0.500000000
  0.000000000  0.500000000  0.625000000
  0.000000000  0.500000000  0.750000000
  0.000000000  0.500000000  0.875000000
  0.000000000  0.625000000  0.000000000
  0.000000000  0.625000000  0.125000000
  0.000000000  0.625000000  0.250000000
  0.000000000  0.625000000  0.375000000
  0.000000000  0.625000000  0.500000000
  0.000000000  0.625000000  0.625000000
  0.000000000  0.625000000  0.750000000
  0.000000000  0.625000000  0.875000000
  0.000000000  0.750000000  0.000000000
  0.000000000  0.750000000  0.125000000
  0.000000000  0.750000000  0.250000000
  0.000000000  0.750000000  0.375000000
  0.000000000  0.750000000  0.500000000
  0.000000000  0.750000000  0.625000000
  0.000000000  0.750000000  0.750000000
  0.000000000  0.750000000  0.875000000
  0.000000000  0.875000000  0.000000000
  0.000000000  0.875000000  0.125000000
  0.000000000  0.875000000  0.250000000
  0.000000000  0.875000000  0.375000000
  0.000000000  0.875000000  0.500000000
  0.000000000  0.875000000  0.625000000
  0.000000000  0.875000000  0.750000000
  0.000000000  0.875000000  0.875000000
  0.125000000  0.000000000  0.000000000
  0.125000000  0.000000000  0.125000000
  0.125000000  0.000000000  0.250000000
  0.125000000  0.000000000  0.375000000
  0.125000000  0.000000000  0.500000000
  0.125000000  0.000000000  0.625000000
  0.125000000  0.000000000  0.750000000
  0.125000000  0.000000000  0.875000000
  0.125000000  0.125000000  0.000000000
  0.125000000  0.125000000  0.125000000
  0.125000000  0.125000000  0.250000000
  0.125000000  0.125000000  0.375000000
  0.125000000  0.125000000  0.500000000
  0.125000000  0.125000000  0.625000000
  0.125000000  0.125000000  0.750000000
  0.125000000  0.125000000  0.875000000
  0.125000000  0.250000000  0.000000000
  0.125000000  0.250000000  0.125000000
  0.125000000  0.250000000  0.250000000
  0.125000000  0.250000000  0.375000000
  0.125000000  0.250000000  0.500000000
  0.125000000  0.250000000  0.625000000
  0.125000000  0.250000000  0.750000000
  0.125000000  0.250000000  0.875000000
  0.125000000  0.375000000  0.000000000
  0.125000000  0.375000000  0.125000000
  0.125000000  0.375000000  0.250000000
  0.125000000  0.375000000  0.375000000
  0.125000000  0.375000000  0.500000000
  0.125000000  0.375000000  0.625000000
  0.125000000  0.375000000  0.750000000
  0.125000000  0.375000000  0.875000000
  0.125000000  0.500000000  0.000000000
  0.125000000  0.500000000  0.125000000
  0.125000000  0.500000000  0.250000000
  0.125000000  0.500000000  0.375000000
  0.125000000  0.500000000  0.500000000
  0.125000000  0.500000000  0.625000000
  0.125000000  0.500000000  0.750000000
  0.125000000  0.500000000  0.875000000
  0.125000000  0.625000000  0.000000000
  0.125000000  0.625000000  0.125000000
  0.125000000  0.625000000  0.250000000
  0.125000000  0.625000000  0.375000000
  0.125000000  0.625000000  0.500000000
  0.125000000  0.625000000  0.625000000
  0.125000000  0.625000000  0.750000000
  0.125000000  0.625000000  0.875000000
  0.125000000  0.750000000  0.000000000
  0.125000000  0.750000000  0.125000000
  0.125000000  0.750000000  0.250000000
  0.125000000  0.750000000  0.375000000
  0.125000000  0.750000000  0.500000000
  0.125000000  0.750000000  0.625000000
  0.125000000  0.750000000  0.750000000
  0.125000000  0.750000000  0.875000000
  0.125000000  0.875000000  0.000000000
  0.125000000  0.875000000  0.125000000
  0.125000000  0.875000000  0.250000000
  0.125000000  0.875000000  0.375000000
  0.125000000  0.875000000  0.500000000
  0.125000000  0.875000000  0.625000000
  0.125000000  0.875000000  0.750000000
  0.125000000  0.875000000  0.875000000
  0.250000000  0.000000000  0.000000000
  0.250000000  0.000000000  0.125000000
  0.250000000  0.000000000  0.250000000
  0.250000000  0.000000000  0.375000000
  0.250000000  0.000000000  0.500000000
  0.250000000  0.000000000  0.625000000
  0.250000000  0.000000000  0.750000000
  0.250000000  0.000000000  0.875000000
  0.250000000  0.125000000  0.000000000
  0.250000000  0.125000000  0.125000000
  0.250000000  0.125000000  0.250000000
  0.250000000  0.125000000  0.375000000
  0.250000000  0.125000000  0.500000000
  0.250000000  0.125000000  0.625000000
  0.250000000  0.125000000  0.750000000
  0.250000000  0.125000000  0.875000000
  0.250000000  0.250000000  0.000000000
  0.250000000  0.250000000  0.125000000
  0.250000000  0.250000000  0.250000000
  0.250000000  0.250000000  0.375000000
  0.250000000  0.250000000  0.500000000
  0.250000000  0.250000000  0.625000000
  0.250000000  0.250000000  0.750000000
  0.250000000  0.250000000  0.875000000
  0.250000000  0.375000000  0.000000000
  0.250000000  0.375000000  0.125000000
  0.250000000  0.375000000  0.250000000
  0.250000000  0.375000000  0.375000000
  0.250000000  0.375000000  0.500000000
  0.250000000  0.375000000  0.625000000
  0.250000000  0.375000000  0.750000000
  0.250000000  0.375000000  0.875000000
  0.250000000  0.500000000  0.000000000
  0.250000000  0.500000000  0.125000000
  0.250000000  0.500000000  0.250000000
  0.250000000  0.500000000  0.375000000
  0.250000000  0.500000000  0.500000000
  0.250000000  0.500000000  0.625000000
  0.250000000  0.500000000  0.750000000
  0.250000000  0.500000000  0.875000000
  0.250000000  0.625000000  0.000000000
  0.250000000  0.625000000  0.125000000
  0.250000000  0.625000000  0.250000000
  0.250000000  0.625000000  0.375000000
  0.250000000  0.625000000  0.500000000
  0.250000000  0.625000000  0.625000000
  0.250000000  0.625000000  0.750000000
  0.250000000  0.625000000  0.875000000
  0.250000000  0.750000000  0.000000000
  0.250000000  0.750000000  0.125000000
  0.250000000  0.750000000  0.250000000
  0.250000000  0.750000000  0.375000000
  0.250000000  0.750000000  0.500000000
  0.250000000  0.750000000  0.625000000
  0.250000000  0.750000000  0.750000000
  0.250000000  0.750000000  0.875000000
  0.250000000  0.875000000  0.000000000
  0.250000000  0.875000000  0.125000000
  0.250000000  0.875000000  0.250000000
  0.250000000  0.875000000  0.375000000
  0.250000000  0.875000000  0.500000000
  0.250000000  0.875000000  0.625000000
  0.250000000  0.875000000  0.750000000
  0.250000000  0.875000000  0.875000000
  0.375000000  0.000000000  0.000000000
  0.375000000  0.000000000  0.125000000
  0.375000000  0.000000000  0.250000000
  0.375000000  0.000000000  0.375000000
  0.375000000  0.000000000  0.500000000
  0.375000000  0.000000000  0.625000000
  0.375000000  0.000000000  0.750000000
  0.375000000  0.000000000  0.875000000
  0.375000000  0.125000000  0.000000000
  0.375000000  0.125000000  0.125000000
  0.375000000  0.125000000  0.250000000
  0.375000000  0.125000000  0.375000000
  0.375000000  0.125000000  0.500000000
  0.375000000  0.125000000  0.625000000
  0.375000000  0.125000000  0.750000000
  0.375000000  0.125000000  0.875000000
  0.375000000  0.250000000  0.000000000
  0.375000000  0.250000000  0.125000000
  0.375000000  0.250000000  0.250000000
  0.375000000  0.250000000  0.375000000
  0.375000000  0.250000000  0.500000000
  0.375000000  0.250000000  0.625000000
  0.375000000  0.250000000  0.750000000
  0.375000000  0.250000000  0.875000000
  0.375000000  0.375000000  0.000000000
  0.375000000  0.375000000  0.125000000
  0.375000000  0.375000000  0.250000000
  0.375000000  0.375000000  0.375000000
  0.375000000  0.375000000  0.500000000
  0.375000000  0.375000000  0.625000000
  0.375000000  0.375000000  0.750000000
  0.375000000  0.375000000  0.875000000
  0.375000000  0.500000000  0.000000000
  0.375000000  0.500000000  0.125000000
  0.375000000  0.500000000  0.250000000
  0.375000000  0.500000000  0.375000000
  0.375000000  0.500000000  0.500000000
  0.375000000  0.500000000  0.625000000
  0.375000000  0.500000000  0.750000000
  0.375000000  0.500000000  0.875000000
  0.375000000  0.625000000  0.000000000
  0.375000000  0.625000000  0.125000000
  0.375000000  0.625000000  0.250000000
  0.375000000  0.625000000  0.375000000
  0.375000000  0.625000000  0.500000000
  0.375000000  0.625000000  0.625000000
  0.375000000  0.625000000  0.750000000
  0.375000000  0.625000000  0.875000000
  0.375000000  0.750000000  0.000000000
  0.375000000  0.750000000  0.125000000
  0.375000000  0.750000000  0.250000000
  0.375000000  0.750000000  0.375000000
  0.375000000  0.750000000  0.500000000
  0.375000000  0.750000000  0.625000000
  0.375000000  0.750000000  0.750000000
  0.375000000  0.750000000  0.875000000
  0.375000000  0.875000000  0.000000000
  0.375000000  0.875000000  0.125000000
  0.375000000  0.875000000  0.250000000
  0.375000000  0.875000000  0.375000000
  0.375000000  0.875000000  0.500000000
  0.375000000  0.875000000  0.625000000
  0.375000000  0.875000000  0.750000000
  0.375000000  0.875000000  0.875000000
  0.500000000  0.000000000  0.000000000
  0.500000000  0.000000000  0.125000000
  0.500000000  0.000000000  0.250000000
  0.500000000  0.000000000  0.375000000
  0.500000000  0.000000000  0.500000000
  0.500000000  0.000000000  0.625000000
  0.500000000  0.000000000  0.750000000
  0.500000000  0.000000000  0.875000000
  0.500000000  0.125000000  0.000000000
  0.500000000  0.125000000  0.125000000
  0.500000000  0.125000000  0.250000000
  0.500000000  0.125000000  0.375000000
  0.500000000  0.125000000  0.500000000
  0.500000000  0.125000000  0.625000000
  0.500000000  0.125000000  0.750000000
  0.500000000  0.125000000  0.875000000
  0.500000000  0.250000000  0.000000000
  0.500000000  0.250000000  0.125000000
  0.500000000  0.250000000  0.250000000
  0.500000000  0.250000000  0.375000000
  0.500000000  0.250000000  0.500000000
  0.500000000  0.250000000  0.625000000
  0.500000000  0.250000000  0.750000000
  0.500000000  0.250000000  0.875000000
  0.500000000  0.375000000  0.000000000
  0.500000000  0.375000000  0.125000000
  0.500000000  0.375000000  0.250000000
  0.500000000  0.375000000  0.375000000
  0.500000000  0.375000000  0.500000000
  0.500000000  0.375000000  0.625000000
  0.500000000  0.375000000  0.750000000
  0.500000000  0.375000000  0.875000000
  0.500000000  0.500000000  0.000000000
  0.500000000  0.500000000  0.125000000
  0.500000000  0.500000000  0.250000000
  0.500000000  0.500000000  0.375000000
  0.500000000  0.500000000  0.500000000
  0.500000000  0.500000000  0.625000000
  0.500000000  0.500000000  0.750000000
  0.500000000  0.500000000  0.875000000
  0.500000000  0.625000000  0.000000000
  0.500000000  0.625000000  0.125000000
  0.500000000  0.625000000  0.250000000
  0.500000000  0.625000000  0.375000000
  0.500000000  0.625000000  0.500000000
  0.500000000  0.625000000  0.625000000
  0.500000000  0.625000000  0.750000000
  0.500000000  0.625000000  0.875000000
  0.500000000  0.750000000  0.000000000
  0.500000000  0.750000000  0.125000000
  0.500000000  0.750000000  0.250000000
  0.500000000  0.750000000  0.375000000
  0.500000000  0.750000000  0.500000000
  0.500000000  0.750000000  0.625000000
  0.500000000  0.750000000  0.750000000
  0.500000000  0.750000000  0.875000000
  0.500000000  0.875000000  0.000000000
  0.500000000  0.875000000  0.125000000
  0.500000000  0.875000000  0.250000000
  0.500000000  0.875000000  0.375000000
  0.500000000  0.875000000  0.500000000
  0.500000000  0.875000000  0.625000000
  0.500000000  0.875000000  0.750000000
  0.500000000  0.875000000  0.875000000
  0.625000000  0.000000000  0.000000000
  0.625000000  0.000000000  0.125000000
  0.625000000  0.000000000  0.250000000
  0.625000000  0.000000000  0.375000000
  0.625000000  0.000000000  0.500000000
  0.625000000  0.000000000  0.625000000
  0.625000000  0.000000000  0.750000000
  0.625000000  0.000000000  0.875000000
  0.625000000  0.125000000  0.000000000
  0.625000000  0.125000000  0.125000000
  0.625000000  0.125000000  0.250000000
  0.625000000  0.125000000  0.375000000
  0.625000000  0.125000000  0.500000000
  0.625000000  0.125000000  0.625000000
  0.625000000  0.125000000  0.750000000
  0.625000000  0.125000000  0.875000000
  0.625000000  0.250000000  0.000000000
  0.625000000  0.250000000  0.125000000
  0.625000000  0.250000000  0.250000000
  0.625000000  0.250000000  0.375000000
  0.625000000  0.250000000  0.500000000
  0.625000000  0.250000000  0.625000000
  0.625000000  0.250000000  0.750000000
  0.625000000  0.250000000  0.875000000
  0.625000000  0.375000000  0.000000000
  0.625000000  0.375000000  0.125000000
  0.625000000  0.375000000  0.250000000
  0.625000000  0.375000000  0.375000000
  0.625000000  0.375000000  0.500000000
  0.625000000  0.375000000  0.625000000
  0.625000000  0.375000000  0.750000000
  0.625000000  0.375000000  0.875000000
  0.625000000  0.500000000  0.000000000
  0.625000000  0.500000000  0.125000000
  0.625000000  0.500000000  0.250000000
  0.625000000  0.500000000  0.375000000
  0.625000000  0.500000000  0.500000000
  0.625000000  0.500000000  0.625000000
  0.625000000  0.500000000  0.750000000
  0.625000000  0.500000000  0.875000000
  0.625000000  0.625000000  0.000000000
  0.625000000  0.625000000  0.125000000
  0.625000000  0.625000000  0.250000000
  0.625000000  0.625000000  0.375000000
  0.625000000  0.625000000  0.500000000
  0.625000000  0.625000000  0.625000000
  0.625000000  0.625000000  0.750000000
  0.625000000  0.625000000  0.875000000
  0.625000000  0.750000000  0.000000000
  0.625000000  0.750000000  0.125000000
  0.625000000  0.750000000  0.250000000
  0.625000000  0.750000000  0.375000000
  0.625000000  0.750000000  0.500000000
  0.625000000  0.750000000  0.625000000
  0.625000000  0.750000000  0.750000000
  0.625000000  0.750000000  0.875000000
  0.625000000  0.875000000  0.000000000
  0.625000000  0.875000000  0.125000000
  0.625000000  0.875000000  0.250000000
  0.625000000  0.875000000  0.375000000
  0.625000000  0.875000000  0.500000000
  0.625000000  0.875000000  0.625000000
  0.625000000  0.875000000  0.750000000
  0.625000000  0.875000000  0.875000000
  0.750000000  0.000000000  0.000000000
  0.750000000  0.000000000  0.125000000
  0.750000000  0.000000000  0.250000000
  0.750000000  0.000000000  0.375000000
  0.750000000  0.000000000  0.500000000
  0.750000000  0.000000000  0.625000000
  0.750000000  0.000000000  0.750000000
  0.750000000  0.000000000  0.875000000
  0.750000000  0.125000000  0.000000000
  0.750000000  0.125000000  0.125000000
  0.750000000  0.125000000  0.250000000
  0.750000000  0.125000000  0.375000000
  0.750000000  0.125000000  0.500000000
  0.750000000  0.125000000  0.625000000
  0.750000000  0.125000000  0.750000000
  0.750000000  0.125000000  0.875000000
  0.750000000  0.250000000  0.000000000
  0.750000000  0.250000000  0.125000000
  0.750000000  0.250000000  0.250000000
  0.750000000  0.250000000  0.375000000
  0.750000000  0.250000000  0.500000000
  0.750000000  0.250000000  0.625000000
  0.750000000  0.250000000  0.750000000
  0.750000000  0.250000000  0.875000000
  0.750000000  0.375000000  0.000000000
  0.750000000  0.375000000  0.125000000
  0.750000000  0.375000000  0.250000000
  0.750000000  0.375000000  0.375000000
  0.750000000  0.375000000  0.500000000
  0.750000000  0.375000000  0.625000000
  0.750000000  0.375000000  0.750000000
  0.750000000  0.375000000  0.875000000
  0.750000000  0.500000000  0.000000000
  0.750000000  0.500000000  0.125000000
  0.750000000  0.500000000  0.250000000
  0.750000000  0.500000000  0.375000000
  0.750000000  0.500000000  0.500000000
  0.750000000  0.500000000  0.625000000
  0.750000000  0.500000000  0.750000000
  0.750000000  0.500000000  0.875000000
  0.750000000  0.625000000  0.000000000
  0.750000000  0.625000000  0.125000000
  0.750000000  0.625000000  0.250000000
  0.750000000  0.625000000  0.375000000
  0.750000000  0.625000000  0.500000000
  0.750000000  0.625000000  0.625000000
  0.750000000  0.625000000  0.750000000
  0.750000000  0.625000000  0.875000000
  0.750000000  0.750000000  0.000000000
  0.750000000  0.750000000  0.125000000
  0.750000000  0.750000000  0.250000000
  0.750000000  0.750000000  0.375000000
  0.750000000  0.750000000  0.500000000
  0.750000000  0.750000000  0.625000000
  0.750000000  0.750000000  0.750000000
  0.750000000  0.750000000  0.875000000
  0.750000000  0.875000000  0.000000000
  0.750000000  0.875000000  0.125000000
  0.750000000  0.875000000  0.250000000
  0.750000000  0.875000000  0.375000000
  0.750000000  0.875000000  0.500000000
  0.750000000  0.875000000  0.625000000
  0.750000000  0.875000000  0.750000000
  0.750000000  0.875000000  0.875000000
  0.875000000  0.000000000  0.000000000
  0.875000000  0.000000000  0.125000000
  0.875000000  0.000000000  0.250000000
  0.875000000  0.000000000  0.375000000
  0.875000000  0.000000000  0.500000000
  0.875000000  0.000000000  0.625000000
  0.875000000  0.000000000  0.750000000
  0.875000000  0.000000000  0.875000000
  0.875000000  0.125000000  0.000000000
  0.875000000  0.125000000  0.125000000
  0.875000000  0.125000000  0.250000000
  0.875000000  0.125000000  0.375000000
  0.875000000  0.125000000  0.500000000
  0.875000000  0.125000000  0.625000000
  0.875000000  0.125000000  0.750000000
  0.875000000  0.125000000  0.875000000
  0.875000000  0.250000000  0.000000000
  0.875000000  0.250000000  0.125000000
  0.875000000  0.250000000  0.250000000
  0.875000000  0.250000000  0.375000000
  0.875000000  0.250000000  0.500000000
  0.875000000  0.250000000  0.625000000
  0.875000000  0.250000000  0.750000000
  0.875000000  0.250000000  0.875000000
  0.875000000  0.375000000  0.000000000
  0.875000000  0.375000000  0.125000000
  0.875000000  0.375000000  0.250000000
  0.875000000  0.375000000  0.375000000
  0.875000000  0.375000000  0.500000000
  0.875000000  0.375000000  0.625000000
  0.875000000  0.375000000  0.750000000
  0.875000000  0.375000000  0.875000000
  0.875000000  0.500000000  0.000000000
  0.875000000  0.500000000  0.125000000
  0.875000000  0.500000000  0.250000000
  0.875000000  0.500000000  0.375000000
  0.875000000  0.500000000  0.500000000
  0.875000000  0.500000000  0.625000000
  0.875000000  0.500000000  0.750000000
  0.875000000  0.500000000  0.875000000
  0.875000000  0.625000000  0.000000000
  0.875000000  0.625000000  0.125000000
  0.875000000  0.625000000  0.250000000
  0.875000000  0.625000000  0.375000000
  0.875000000  0.625000000  0.500000000
  0.875000000  0.625000000  0.625000000
  0.875000000  0.625000000  0.750000000
  0.875000000  0.625000000  0.875000000
  0.875000000  0.750000000  0.000000000
  0.875000000  0.750000000  0.125000000
  0.875000000  0.750000000  0.250000000
  0.875000000  0.750000000  0.375000000
  0.875000000  0.750000000  0.500000000
  0.875000000  0.750000000  0.625000000
  0.875000000  0.750000000  0.750000000
  0.875000000  0.750000000  0.875000000
  0.875000000  0.875000000  0.000000000
  0.875000000  0.875000000  0.125000000
  0.875000000  0.875000000  0.250000000
  0.875000000  0.875000000  0.375000000
  0.875000000  0.875000000  0.500000000
  0.875000000  0.875000000  0.625000000
  0.875000000  0.875000000  0.750000000
  0.875000000  0.875000000  0.875000000
 end kpoints
